200
1000
627
626
619
616
611
611
611
610
609
608
607
592
592
582
582
579
575
571
571
566
565
561
558
549
543
542
542
537
530
527
520
514
513
512
511
505
495
495
493
493
482
481
480
479
473
466
466
460
460
459
458
458
455
453
445
441
433
431
425
424
418
415
409
409
407
407
401
400
399
397
393
393
385
380
379
372
369
360
353
351
347
338
337
330
316
315
309
309
301
300
299
298
297
296
292
287
287
284
283
274
272
270
269
269
266
264
263
261
258
249
247
238
235
235
234
234
234
233
218
217
211
210
206
204
202
196
193
188
188
187
187
180
180
178
177
174
173
168
167
165
162
159
158
157
157
151
150
148
146
143
143
143
139
137
136
132
125
123
121
120
114
114
114
106
105
104
101
101
101
99
96
95
93
92
92
89
88
87
87
87
85
84
83
82
79
78
69
65
64
62
62
58
55
53
43
42
39
38
37
35
